name	xcoord	ycoord	start	end	service
0	0	0	0	2000	0
1	-78	81	1193	1392	3
2	-30	-53	1324	1532	24
3	-92	-91	1683	1780	22
4	-31	51	253	298	11
5	21	9	1506	1602	24
6	58	69	1209	1263	15
7	-53	70	881	1041	13
8	15	1	556	696	1
9	49	91	1517	1638	20
10	-8	50	301	481	22
11	-65	42	234	417	9
12	-26	45	431	548	13
13	82	49	1812	1889	24
14	-22	0	1267	1394	4
15	63	75	1366	1457	15
16	22	-2	1880	2002	16
17	6	30	1060	1191	15
18	87	28	21	129	20
19	98	34	80	178	14
20	69	30	1662	1711	15
21	-93	-74	1457	1556	9
22	-80	-43	1859	2074	20
23	74	-28	1821	2000	24
24	-23	-56	1005	1197	14
25	19	22	1210	1245	2
26	90	57	1273	1449	10
27	-60	-36	1027	1153	4
28	-54	39	283	367	23
29	-10	18	848	1020	10
30	36	84	1317	1513	13
